     Program PWSCF v.5.0.2 (svn rev. 9392) starts on 29Aug2016 at  9:49:17

     Current dimensions of program PWSCF are:
     Max number of different atomic species (ntypx) = 10
     Max number of k-points (npk) =  40000
     Max angular momentum in pseudopotentials (lmaxx) =  3
     Waiting for input...
     Reading input from standard input

     Subspace diagonalization in iterative solution of the eigenvalue problem:
     a serial algorithm will be used

     bravais-lattice index     =            0
     lattice parameter (alat)  =       5.6565  a.u.
     unit-cell volume          =     212.6815 (a.u.)^3
     number of atoms/cell      =            4
     number of atomic types    =            3
     number of electrons       =        32.00
     number of Kohn-Sham states=           16
     kinetic-energy cutoff     =      80.0000  Ry
     charge density cutoff     =     800.0000  Ry
     convergence threshold     =      1.0E-12
     mixing beta               =       0.7000
     number of iterations used =            8  plain     mixing
     Exchange-correlation      =  SLA  PW   PSX  PSC ( 1 410 8 0)
     EXX-fraction              =        0.00

     celldm(1)=   5.656500  celldm(2)=   0.000000  celldm(3)=   0.000000
     celldm(4)=   0.000000  celldm(5)=   0.000000  celldm(6)=   0.000000

     crystal axes: (cart. coord. in units of alat)
               a(1) = (   0.469727   0.813606   0.001548 )
               a(2) = (  -0.469743   0.813594   0.001573 )
               a(3) = (   0.000018   0.539401   1.538453 )

     reciprocal axes: (cart. coord. in units 2 pi/alat)
               b(1) = (  1.064416  0.614977 -0.215631 )
               b(2) = ( -1.064443  0.614955 -0.215599 )
               b(3) = (  0.000017 -0.001248  0.650441 )

     PseudoPot. # 1 for Co read from file:
     ./co_pbesol_v1.2.uspp.F.UPF
     MD5 check sum: 3b4cd4e7cc7df4da9fdede0fd33e2193
     Pseudo is Ultrasoft + core correction, Zval = 17.0
     Generated by new atomic code, or converted to UPF format
     Using radial grid of  863 points,  6 beta functions with:
                l(1) =   0
                l(2) =   0
                l(3) =   1
                l(4) =   1
                l(5) =   2
                l(6) =   2
     Q(r) pseudized with  8 coefficients,  rinner =    1.200   1.200   1.200
                                                       1.200   1.200

     PseudoPot. # 2 for  O read from file:
     ./O.pbesol-n-rrkjus_psl.0.1.UPF
     MD5 check sum: fef7d1fa2206f1010587a3682cab9228
     Pseudo is Ultrasoft + core correction, Zval =  6.0
     Generated using "atomic" code by A. Dal Corso  v.5.0.99 svn rev. 10869
     Using radial grid of 1095 points,  4 beta functions with:
                l(1) =   0
                l(2) =   0
                l(3) =   1
                l(4) =   1
     Q(r) pseudized with 0 coefficients

     PseudoPot. # 3 for Li read from file:
     ./li_pbesol_v1.4.uspp.F.UPF
     MD5 check sum: 3ab8cf443298431596f4147a8981ed5f
     Pseudo is Ultrasoft, Zval =  3.0
     Generated by new atomic code, or converted to UPF format
     Using radial grid of  751 points,  5 beta functions with:
                l(1) =   0
                l(2) =   0
                l(3) =   0
                l(4) =   1
                l(5) =   1
     Q(r) pseudized with 10 coefficients,  rinner =    1.150   1.150   1.150

     atomic species   valence    mass     pseudopotential
        Co            17.00    58.93319     Co( 1.00)
        O              6.00    15.99900      O( 1.00)
        Li             3.00     6.94000     Li( 1.00)

     Simplified LDA+U calculation (l_max = 2) with parameters (eV):
     atomic species    L          U    alpha       J0     beta
        Co             2     8.9288   0.0000   0.0000   0.0000

     No symmetry found

                                    s                        frac. trans.

      isym =  1     identity

 cryst.   s( 1) = (     1          0          0      )
                  (     0          1          0      )
                  (     0          0          1      )

 cart.    s( 1) = (  1.0000000 -0.0000000  0.0000000 )
                  (  0.0000000  1.0000000  0.0000000 )
                  ( -0.0000000 -0.0000000  1.0000000 )

     point group C_1 (1)
     there are  1 classes
     the character table:

       E
A      1.00

     the symmetry operations in each class:
     E        1

   Cartesian axes

     site n.     atom                  positions (alat units)
         1           Co  tau(   1) = (   0.0000056  -0.0000051  -0.0000000  )
         2           Li  tau(   2) = (   0.0000456   1.0832555   0.7707873  )
         3           O   tau(   3) = (   0.0000093   0.5417566   0.3347727  )
         4           O   tau(   4) = (   0.0000026   1.6248354   1.2068019  )

   Crystallographic axes

     site n.     atom                  positions (cryst. coord.)
         1           Co  tau(   1) = (  0.0000028 -0.0000090  0.0000000  )
         2           Li  tau(   2) = (  0.5000200  0.4999243  0.5000000  )
         3           O   tau(   3) = (  0.2609903  0.2609696  0.2170739  )
         4           O   tau(   4) = (  0.7390151  0.7390131  0.7829261  )

     number of k points=   196
                       cart. coord. in units 2pi/alat
        k(    1) = (   0.0000000   0.0000000   0.0000000), wk =   0.0052083
        k(    2) = (   0.0000028  -0.0002079   0.1084068), wk =   0.0104167
        k(    3) = (   0.0000056  -0.0004159   0.2168136), wk =   0.0104167
        k(    4) = (  -0.0000084   0.0006238  -0.3252204), wk =   0.0052083
        k(    5) = (  -0.1330553   0.0768694  -0.0269498), wk =   0.0104167
        k(    6) = (  -0.1330525   0.0766615   0.0814570), wk =   0.0104167
        k(    7) = (  -0.1330497   0.0764535   0.1898638), wk =   0.0104167
        k(    8) = (  -0.1330637   0.0774932  -0.3521703), wk =   0.0104167
        k(    9) = (  -0.1330609   0.0772853  -0.2437635), wk =   0.0104167
        k(   10) = (  -0.1330581   0.0770773  -0.1353567), wk =   0.0104167
        k(   11) = (  -0.2661107   0.1537388  -0.0538997), wk =   0.0104167
        k(   12) = (  -0.2661079   0.1535309   0.0545071), wk =   0.0104167
        k(   13) = (  -0.2661051   0.1533229   0.1629139), wk =   0.0104167
        k(   14) = (  -0.2661191   0.1543626  -0.3791201), wk =   0.0104167
        k(   15) = (  -0.2661163   0.1541547  -0.2707133), wk =   0.0104167
        k(   16) = (  -0.2661135   0.1539467  -0.1623065), wk =   0.0104167
        k(   17) = (  -0.3991660   0.2306082  -0.0808495), wk =   0.0104167
        k(   18) = (  -0.3991632   0.2304003   0.0275573), wk =   0.0104167
        k(   19) = (  -0.3991604   0.2301923   0.1359641), wk =   0.0104167
        k(   20) = (  -0.3991744   0.2312320  -0.4060700), wk =   0.0104167
        k(   21) = (  -0.3991716   0.2310241  -0.2976632), wk =   0.0104167
        k(   22) = (  -0.3991688   0.2308161  -0.1892564), wk =   0.0104167
        k(   23) = (   0.5322213  -0.3074776   0.1077994), wk =   0.0052083
        k(   24) = (   0.5322241  -0.3076855   0.2162062), wk =   0.0104167
        k(   25) = (   0.5322269  -0.3078935   0.3246130), wk =   0.0104167
        k(   26) = (   0.5322129  -0.3068538  -0.2174210), wk =   0.0052083
        k(   27) = (   0.1330521   0.0768721  -0.0269539), wk =   0.0104167
        k(   28) = (   0.1330549   0.0766642   0.0814529), wk =   0.0104167
        k(   29) = (   0.1330577   0.0764562   0.1898597), wk =   0.0104167
        k(   30) = (   0.1330437   0.0774959  -0.3521743), wk =   0.0104167
        k(   31) = (   0.1330465   0.0772880  -0.2437675), wk =   0.0104167
        k(   32) = (   0.1330493   0.0770800  -0.1353607), wk =   0.0104167
        k(   33) = (  -0.0000033   0.1537415  -0.0539037), wk =   0.0104167
        k(   34) = (  -0.0000005   0.1535336   0.0545031), wk =   0.0104167
        k(   35) = (   0.0000023   0.1533256   0.1629099), wk =   0.0104167
        k(   36) = (  -0.0000117   0.1543653  -0.3791241), wk =   0.0104167
        k(   37) = (  -0.0000089   0.1541574  -0.2707173), wk =   0.0104167
        k(   38) = (  -0.0000061   0.1539494  -0.1623105), wk =   0.0104167
        k(   39) = (  -0.1330586   0.2306109  -0.0808536), wk =   0.0104167
        k(   40) = (  -0.1330558   0.2304030   0.0275532), wk =   0.0104167
        k(   41) = (  -0.1330530   0.2301950   0.1359600), wk =   0.0104167
        k(   42) = (  -0.1330670   0.2312347  -0.4060740), wk =   0.0104167
        k(   43) = (  -0.1330642   0.2310268  -0.2976672), wk =   0.0104167
        k(   44) = (  -0.1330614   0.2308188  -0.1892604), wk =   0.0104167
        k(   45) = (  -0.2661139   0.3074803  -0.1078034), wk =   0.0104167
        k(   46) = (  -0.2661111   0.3072724   0.0006034), wk =   0.0104167
        k(   47) = (  -0.2661083   0.3070644   0.1090102), wk =   0.0104167
        k(   48) = (  -0.2661223   0.3081041  -0.4330238), wk =   0.0104167
        k(   49) = (  -0.2661195   0.3078962  -0.3246170), wk =   0.0104167
        k(   50) = (  -0.2661167   0.3076882  -0.2162102), wk =   0.0104167
        k(   51) = (   0.6652734  -0.2306055   0.0808455), wk =   0.0104167
        k(   52) = (   0.6652762  -0.2308134   0.1892523), wk =   0.0104167
        k(   53) = (   0.6652790  -0.2310214   0.2976591), wk =   0.0104167
        k(   54) = (   0.6652650  -0.2299817  -0.2443749), wk =   0.0104167
        k(   55) = (   0.6652678  -0.2301896  -0.1359681), wk =   0.0104167
        k(   56) = (   0.6652706  -0.2303976  -0.0275613), wk =   0.0104167
        k(   57) = (   0.5322180  -0.1537361   0.0538957), wk =   0.0104167
        k(   58) = (   0.5322208  -0.1539440   0.1623025), wk =   0.0104167
        k(   59) = (   0.5322236  -0.1541520   0.2707093), wk =   0.0104167
        k(   60) = (   0.5322096  -0.1531123  -0.2713247), wk =   0.0104167
[...]
        k(  182) = (  -0.7983161  -0.1539576   0.1623226), wk =   0.0104167
        k(  183) = (  -0.7983133  -0.1541655   0.2707294), wk =   0.0104167
        k(  184) = (  -0.7983273  -0.1531258  -0.2713046), wk =   0.0104167
        k(  185) = (  -0.7983245  -0.1533337  -0.1628978), wk =   0.0104167
        k(  186) = (  -0.7983217  -0.1535417  -0.0544910), wk =   0.0104167
        k(  187) = (  -0.9313742  -0.0768802   0.0269659), wk =   0.0104167
        k(  188) = (  -0.9313714  -0.0770882   0.1353727), wk =   0.0104167
        k(  189) = (  -0.9313686  -0.0772961   0.2437795), wk =   0.0104167
        k(  190) = (  -0.9313826  -0.0762564  -0.2982545), wk =   0.0104167
        k(  191) = (  -0.9313798  -0.0764643  -0.1898477), wk =   0.0104167
        k(  192) = (  -0.9313770  -0.0766723  -0.0814409), wk =   0.0104167
        k(  193) = (   0.0000131  -0.6149660   0.2156149), wk =   0.0052083
        k(  194) = (   0.0000159  -0.6151740   0.3240217), wk =   0.0104167
        k(  195) = (   0.0000187  -0.6153819   0.4324285), wk =   0.0104167
        k(  196) = (   0.0000047  -0.6143422  -0.1096056), wk =   0.0052083

                       cryst. coord.
        k(    1) = (   0.0000000   0.0000000   0.0000000), wk =   0.0052083
        k(    2) = (   0.0000000  -0.0000000   0.1666667), wk =   0.0104167
        k(    3) = (   0.0000000  -0.0000000   0.3333333), wk =   0.0104167
        k(    4) = (   0.0000000   0.0000000  -0.5000000), wk =   0.0052083
        k(    5) = (  -0.0000000   0.1250000  -0.0000000), wk =   0.0104167
        k(    6) = (  -0.0000000   0.1250000   0.1666667), wk =   0.0104167
        k(    7) = (  -0.0000000   0.1250000   0.3333333), wk =   0.0104167
        k(    8) = (   0.0000000   0.1250000  -0.5000000), wk =   0.0104167
        k(    9) = (  -0.0000000   0.1250000  -0.3333333), wk =   0.0104167
        k(   10) = (  -0.0000000   0.1250000  -0.1666667), wk =   0.0104167
        k(   11) = (  -0.0000000   0.2500000  -0.0000000), wk =   0.0104167
        k(   12) = (  -0.0000000   0.2500000   0.1666667), wk =   0.0104167
        k(   13) = (  -0.0000000   0.2500000   0.3333333), wk =   0.0104167
        k(   14) = (  -0.0000000   0.2500000  -0.5000000), wk =   0.0104167
        k(   15) = (  -0.0000000   0.2500000  -0.3333333), wk =   0.0104167
        k(   16) = (  -0.0000000   0.2500000  -0.1666667), wk =   0.0104167
        k(   17) = (  -0.0000000   0.3750000  -0.0000000), wk =   0.0104167
        k(   18) = (  -0.0000000   0.3750000   0.1666667), wk =   0.0104167
        k(   19) = (  -0.0000000   0.3750000   0.3333333), wk =   0.0104167
        k(   20) = (  -0.0000000   0.3750000  -0.5000000), wk =   0.0104167
        k(   21) = (  -0.0000000   0.3750000  -0.3333333), wk =   0.0104167
        k(   22) = (  -0.0000000   0.3750000  -0.1666667), wk =   0.0104167
        k(   23) = (   0.0000000  -0.5000000   0.0000000), wk =   0.0052083
        k(   24) = (   0.0000000  -0.5000000   0.1666667), wk =   0.0104167
        k(   25) = (   0.0000000  -0.5000000   0.3333333), wk =   0.0104167
        k(   26) = (   0.0000000  -0.5000000  -0.5000000), wk =   0.0052083
        k(   27) = (   0.1250000  -0.0000000   0.0000000), wk =   0.0104167
        k(   28) = (   0.1250000  -0.0000000   0.1666667), wk =   0.0104167
        k(   29) = (   0.1250000  -0.0000000   0.3333333), wk =   0.0104167
        k(   30) = (   0.1250000  -0.0000000  -0.5000000), wk =   0.0104167
        k(   31) = (   0.1250000  -0.0000000  -0.3333333), wk =   0.0104167
        k(   32) = (   0.1250000  -0.0000000  -0.1666667), wk =   0.0104167
        k(   33) = (   0.1250000   0.1250000  -0.0000000), wk =   0.0104167
        k(   34) = (   0.1250000   0.1250000   0.1666667), wk =   0.0104167
        k(   35) = (   0.1250000   0.1250000   0.3333333), wk =   0.0104167
        k(   36) = (   0.1250000   0.1250000  -0.5000000), wk =   0.0104167
        k(   37) = (   0.1250000   0.1250000  -0.3333333), wk =   0.0104167
        k(   38) = (   0.1250000   0.1250000  -0.1666667), wk =   0.0104167
        k(   39) = (   0.1250000   0.2500000  -0.0000000), wk =   0.0104167
        k(   40) = (   0.1250000   0.2500000   0.1666667), wk =   0.0104167
        k(   41) = (   0.1250000   0.2500000   0.3333333), wk =   0.0104167
        k(   42) = (   0.1250000   0.2500000  -0.5000000), wk =   0.0104167
        k(   43) = (   0.1250000   0.2500000  -0.3333333), wk =   0.0104167
        k(   44) = (   0.1250000   0.2500000  -0.1666667), wk =   0.0104167
        k(   45) = (   0.1250000   0.3750000  -0.0000000), wk =   0.0104167
        k(   46) = (   0.1250000   0.3750000   0.1666667), wk =   0.0104167
        k(   47) = (   0.1250000   0.3750000   0.3333333), wk =   0.0104167
        k(   48) = (   0.1250000   0.3750000  -0.5000000), wk =   0.0104167
        k(   49) = (   0.1250000   0.3750000  -0.3333333), wk =   0.0104167
        k(   50) = (   0.1250000   0.3750000  -0.1666667), wk =   0.0104167
        k(   51) = (   0.1250000  -0.5000000   0.0000000), wk =   0.0104167
        k(   52) = (   0.1250000  -0.5000000   0.1666667), wk =   0.0104167
        k(   53) = (   0.1250000  -0.5000000   0.3333333), wk =   0.0104167
        k(   54) = (   0.1250000  -0.5000000  -0.5000000), wk =   0.0104167
        k(   55) = (   0.1250000  -0.5000000  -0.3333333), wk =   0.0104167
        k(   56) = (   0.1250000  -0.5000000  -0.1666667), wk =   0.0104167
        k(   57) = (   0.1250000  -0.3750000   0.0000000), wk =   0.0104167
        k(   58) = (   0.1250000  -0.3750000   0.1666667), wk =   0.0104167
        k(   59) = (   0.1250000  -0.3750000   0.3333333), wk =   0.0104167
        k(   60) = (   0.1250000  -0.3750000  -0.5000000), wk =   0.0104167
[...]
        k(  182) = (  -0.5000000   0.2500000   0.1666667), wk =   0.0104167
        k(  183) = (  -0.5000000   0.2500000   0.3333333), wk =   0.0104167
        k(  184) = (  -0.5000000   0.2500000  -0.5000000), wk =   0.0104167
        k(  185) = (  -0.5000000   0.2500000  -0.3333333), wk =   0.0104167
        k(  186) = (  -0.5000000   0.2500000  -0.1666667), wk =   0.0104167
        k(  187) = (  -0.5000000   0.3750000  -0.0000000), wk =   0.0104167
        k(  188) = (  -0.5000000   0.3750000   0.1666667), wk =   0.0104167
        k(  189) = (  -0.5000000   0.3750000   0.3333333), wk =   0.0104167
        k(  190) = (  -0.5000000   0.3750000  -0.5000000), wk =   0.0104167
        k(  191) = (  -0.5000000   0.3750000  -0.3333333), wk =   0.0104167
        k(  192) = (  -0.5000000   0.3750000  -0.1666667), wk =   0.0104167
        k(  193) = (  -0.5000000  -0.5000000   0.0000000), wk =   0.0052083
        k(  194) = (  -0.5000000  -0.5000000   0.1666667), wk =   0.0104167
        k(  195) = (  -0.5000000  -0.5000000   0.3333333), wk =   0.0104167
        k(  196) = (  -0.5000000  -0.5000000  -0.5000000), wk =   0.0052083

     Largest allocated arrays     est. size (Mb)     dimensions
     Largest temporary arrays     est. size (Mb)     dimensions

     Check: negative/imaginary core charge=   -0.000011    0.000000

     Initial potential from superposition of free atoms

     starting charge   30.54925, renormalised to   32.00000
 --- in v_hubbard ---
Hubbard energy    0.6891
     Number of +U iterations with fixed ns =  0
     Starting occupations:
 --- enter write_ns ---
 LDA+U parameters:
U( 1)     =  8.92880000
alpha( 1) =  0.00000000
atom    1   Tr[ns(na)] =   7.00000
    eigenvalues:
  0.700  0.700  0.700  0.700  0.700
    eigenvectors:
  1.000  0.000  0.000  0.000  0.000
  0.000  1.000  0.000  0.000  0.000
  0.000  0.000  1.000  0.000  0.000
  0.000  0.000  0.000  1.000  0.000
  0.000  0.000  0.000  0.000  1.000
    occupations:
  0.700  0.000  0.000  0.000  0.000
  0.000  0.700  0.000  0.000  0.000
  0.000  0.000  0.700  0.000  0.000
  0.000  0.000  0.000  0.700  0.000
  0.000  0.000  0.000  0.000  0.700
N of occupied +U levels =   7.0000000
 --- exit write_ns ---
 Atomic wfc used for LDA+U Projector are NOT orthogonalized
     Starting wfc are   26 randomized atomic wfcs

     Self-consistent Calculation

     iteration #  1     ecut=    80.00 Ry     beta=0.70
     Davidson diagonalization with overlap
     ethr =  1.00E-02,  avg # of iterations =  3.0
 --- enter write_ns ---
 LDA+U parameters:
U( 1)     =  8.92880000
alpha( 1) =  0.00000000
atom    1   Tr[ns(na)] =   4.89556
    eigenvalues:
  0.236  0.237  0.619  0.676  0.680
    eigenvectors:
  0.000  0.000  1.000  0.000  0.000
  0.066  0.552  0.000  0.142  0.240
  0.555  0.065  0.000  0.237  0.142
  0.339  0.041  0.000  0.388  0.233
  0.041  0.342  0.000  0.233  0.385
    occupations:
  0.619  0.001  0.000  0.001  0.001
  0.001  0.406 -0.001  0.001 -0.215
  0.000 -0.001  0.404 -0.214  0.001
  0.001  0.001 -0.214  0.510 -0.001
  0.001 -0.215  0.001 -0.001  0.510
N of occupied +U levels =   4.8955599
 --- exit write_ns ---
 --- in v_hubbard ---
Hubbard energy    0.6784

     total energy              =    -369.47129637 Ry
     Harris-Foulkes estimate   =    -380.82941041 Ry
     estimated scf accuracy    <      13.50727318 Ry

[...]

     total energy              =    -379.56980144 Ry
     Harris-Foulkes estimate   =    -379.56980144 Ry
     estimated scf accuracy    <          7.7E-12 Ry

     iteration # 24     ecut=    80.00 Ry     beta=0.70
     Davidson diagonalization with overlap
     ethr =  1.00E-13,  avg # of iterations =  1.9
 --- enter write_ns ---
 LDA+U parameters:
U( 1)     =  8.92880000
alpha( 1) =  0.00000000
atom    1   Tr[ns(na)] =   7.74786
    eigenvalues:
  0.443  0.443  0.996  0.996  0.996
    eigenvectors:
  0.000  0.000  0.000  0.000  1.000
  0.075  0.562  0.131  0.232  0.000
  0.566  0.075  0.229  0.130  0.000
  0.317  0.042  0.410  0.231  0.000
  0.043  0.320  0.230  0.407  0.000
    occupations:
  0.996 -0.000  0.001  0.001 -0.000
 -0.000  0.644 -0.000  0.000 -0.266
  0.001 -0.000  0.641 -0.265 -0.000
  0.001  0.000 -0.265  0.797  0.000
 -0.000 -0.266 -0.000  0.000  0.795
N of occupied +U levels =   7.7478571
 --- exit write_ns ---
 --- in v_hubbard ---
Hubbard energy    0.3316

     End of self-consistent calculation

          k = 0.0000 0.0000 0.0000 (  2527 PWs)   bands (ev):

   -83.9627 -47.4125 -47.4125 -47.3047 -33.0879  -9.3130  -7.3174   1.7524
     4.2044   4.2045   6.8666   6.8666   8.2356   8.8255   8.8531   8.8532

     occupation numbers
     1.0000   1.0000   1.0000   1.0000   1.0000   1.0000   1.0000   1.0000
     1.0000   1.0000   1.0000   1.0000   1.0000   1.0000   1.0000   1.0000

[...]

          k =-0.0000 0.0006-0.3252 (  2598 PWs)   bands (ev):

[...]

          k =-0.9314-0.0767-0.0814 (  2565 PWs)   bands (ev):

[...]

          k = 0.0000-0.6143-0.1096 (  2562 PWs)   bands (ev):

   -83.9542 -47.4930 -47.4317 -47.2919 -33.0434  -7.4835  -7.4036   1.5360
     4.0237   5.1031   5.1919   7.0553   7.2167   7.3764   7.4652   8.0428

     occupation numbers
     1.0000   1.0000   1.0000   1.0000   1.0000   1.0000   1.0000   1.0000
     1.0000   1.0000   1.0000   1.0000   1.0000   1.0000   1.0000   1.0000

!    total energy              =    -379.56980144 Ry
     Harris-Foulkes estimate   =    -379.56980144 Ry
     estimated scf accuracy    <          2.9E-13 Ry

     The total energy is the sum of the following terms:

     one-electron contribution =    -259.68309402 Ry
     hartree contribution      =     146.17382396 Ry
     xc contribution           =     -53.24165883 Ry
     ewald contribution        =    -213.15046815 Ry
     Hubbard energy            =       0.33159559 Ry

     convergence has been achieved in  24 iterations

     Writing output data file LiCoO2.save

     General routines

     Parallel routines
     Hubbard U routines

   This run was terminated on:   9:52:45  29Aug2016

   JOB DONE.